Route 1: 5 75 93 2 1 99 100 97 92 94 95 98 7 3 4 91 89 88 84 86 83 82 85 76 71 11 12 13 17 25 9 10 8 21
Route 2: 22 27 30 29 24 20 66 61 64 69 68 65 49 55 54 53 56 58 60 59 57 40 44 46 43 47 45 51 50 52 42 41 48 96
Route 3: 63 74 72 62 67 6 33 32 35 37 38 39 36 34 31 28 26 23 18 19 16 14 15 80 70 73 79 81 78 87 77 90
Vehicles: 3
Distance: 916.12
